(declare-sort $$unsorted 0)
(declare-fun tptp.op ($$unsorted $$unsorted) $$unsorted)
(assert (forall ((X0 $$unsorted) (X1 $$unsorted) (X2 $$unsorted) (X3 $$unsorted) (X4 $$unsorted)) (= (tptp.op X0 X1) (tptp.op (tptp.op (tptp.op X0 X2) X1) X0))))
(assert (not (forall ((X0 $$unsorted) (X1 $$unsorted) (X2 $$unsorted) (X3 $$unsorted) (X4 $$unsorted)) (= (tptp.op X0 X1) (tptp.op (tptp.op (tptp.op X0 X2) X3) X4)))))
(set-info :filename Equation4141_implies_Equation4153)
(check-sat-assuming ( true ))
